\ Model RRP
\ LP format - for model browsing. Use MPS format to capture full model detail.
Maximize
  0 x_kimjn[0,1,0,1,0] + 0 x_kimjn[0,2,2,2,2] + 0 x_kimjn[0,2,2,2,9]
   + 0 x_kimjn[0,2,2,2,12] + 0 x_kimjn[0,2,2,2,22] + 0 x_kimjn[0,2,2,2,6]
   + 0 x_kimjn[0,2,2,2,7] + 0 x_kimjn[0,2,2,2,0] + 0 x_kimjn[0,2,9,2,2]
   + 0 x_kimjn[0,2,9,2,9] + 0 x_kimjn[0,2,9,2,12] + 0 x_kimjn[0,2,9,2,22]
   + 0 x_kimjn[0,2,9,2,6] + 0 x_kimjn[0,2,9,2,7] + 0 x_kimjn[0,2,9,2,0]
   + 0 x_kimjn[0,2,12,2,2] + 0 x_kimjn[0,2,12,2,9] + 0 x_kimjn[0,2,12,2,12]
   + 0 x_kimjn[0,2,12,2,22] + 0 x_kimjn[0,2,12,2,6] + 0 x_kimjn[0,2,12,2,7]
   + 0 x_kimjn[0,2,12,2,0] + 0 x_kimjn[0,2,22,2,2] + 0 x_kimjn[0,2,22,2,9]
   + 0 x_kimjn[0,2,22,2,12] + 0 x_kimjn[0,2,22,2,22]
   + 0 x_kimjn[0,2,22,2,6] + 0 x_kimjn[0,2,22,2,7] + 0 x_kimjn[0,2,22,2,0]
   + 0 x_kimjn[0,2,6,2,2] + 0 x_kimjn[0,2,6,2,9] + 0 x_kimjn[0,2,6,2,12]
   + 0 x_kimjn[0,2,6,2,22] + 0 x_kimjn[0,2,6,2,6] + 0 x_kimjn[0,2,6,2,7]
   + 0 x_kimjn[0,2,6,2,0] + 0 x_kimjn[0,2,7,2,2] + 0 x_kimjn[0,2,7,2,9]
   + 0 x_kimjn[0,2,7,2,12] + 0 x_kimjn[0,2,7,2,22] + 0 x_kimjn[0,2,7,2,6]
   + 0 x_kimjn[0,2,7,2,7] + 0 x_kimjn[0,2,7,2,0] + 0 x_kimjn[0,2,0,2,2]
   + 0 x_kimjn[0,2,0,2,9] + 0 x_kimjn[0,2,0,2,12] + 0 x_kimjn[0,2,0,2,22]
   + 0 x_kimjn[0,2,0,2,6] + 0 x_kimjn[0,2,0,2,7] + 0 x_kimjn[0,2,0,2,0]
   + 0 x_kimjn[0,3,0,1,0] + 0 x_kimjn[0,3,0,2,2] + 0 x_kimjn[0,3,0,2,9]
   + 0 x_kimjn[0,3,0,2,12] + 0 x_kimjn[0,3,0,2,22] + 0 x_kimjn[0,3,0,2,6]
   + 0 x_kimjn[0,3,0,2,7] + 0 x_kimjn[0,3,0,2,0] + 0 x_kimjn[0,3,0,3,0]
   + 0 x_kimjn[0,4,0,1,0] + 0 x_kimjn[0,4,0,2,2] + 0 x_kimjn[0,4,0,2,9]
   + 0 x_kimjn[0,4,0,2,12] + 0 x_kimjn[0,4,0,2,22] + 0 x_kimjn[0,4,0,2,6]
   + 0 x_kimjn[0,4,0,2,7] + 0 x_kimjn[0,4,0,2,0] + 0 x_kimjn[0,4,0,4,0]
   + z_ki[0,1] + z_ki[0,2]
Subject To
 R0: xs_kim[0,1,0] + xs_kim[0,2,2] + xs_kim[0,2,9] + xs_kim[0,2,12]
   + xs_kim[0,2,22] + xs_kim[0,2,6] + xs_kim[0,2,7] + xs_kim[0,2,0]
   + xod_k[0] = 1
 R1: xe_kjn[0,3,0] + xe_kjn[0,4,0] + xod_k[0] = 1
 R2: - x_kimjn[0,1,0,2,2] - x_kimjn[0,1,0,2,9] - x_kimjn[0,1,0,2,12]
   - x_kimjn[0,1,0,2,22] - x_kimjn[0,1,0,2,6] - x_kimjn[0,1,0,2,7]
   - x_kimjn[0,1,0,2,0] - x_kimjn[0,1,0,3,0] - x_kimjn[0,1,0,4,0]
   + x_kimjn[0,2,2,1,0] + x_kimjn[0,2,9,1,0] + x_kimjn[0,2,12,1,0]
   + x_kimjn[0,2,22,1,0] + x_kimjn[0,2,6,1,0] + x_kimjn[0,2,7,1,0]
   + x_kimjn[0,2,0,1,0] + xs_kim[0,1,0] = 0
 R3: x_kimjn[0,1,0,2,2] - x_kimjn[0,2,2,1,0] - x_kimjn[0,2,2,3,0]
   - x_kimjn[0,2,2,4,0] + xs_kim[0,2,2] = 0
 R4: x_kimjn[0,1,0,2,9] - x_kimjn[0,2,9,1,0] - x_kimjn[0,2,9,3,0]
   - x_kimjn[0,2,9,4,0] + xs_kim[0,2,9] = 0
 R5: x_kimjn[0,1,0,2,12] - x_kimjn[0,2,12,1,0] - x_kimjn[0,2,12,3,0]
   - x_kimjn[0,2,12,4,0] + xs_kim[0,2,12] = 0
 R6: x_kimjn[0,1,0,2,22] - x_kimjn[0,2,22,1,0] - x_kimjn[0,2,22,3,0]
   - x_kimjn[0,2,22,4,0] + xs_kim[0,2,22] = 0
 R7: x_kimjn[0,1,0,2,6] - x_kimjn[0,2,6,1,0] - x_kimjn[0,2,6,3,0]
   - x_kimjn[0,2,6,4,0] + xs_kim[0,2,6] = 0
 R8: x_kimjn[0,1,0,2,7] - x_kimjn[0,2,7,1,0] - x_kimjn[0,2,7,3,0]
   - x_kimjn[0,2,7,4,0] + xs_kim[0,2,7] = 0
 R9: x_kimjn[0,1,0,2,0] - x_kimjn[0,2,0,1,0] - x_kimjn[0,2,0,3,0]
   - x_kimjn[0,2,0,4,0] + xs_kim[0,2,0] = 0
 R10: - x_kimjn[0,1,0,3,0] - x_kimjn[0,2,2,3,0] - x_kimjn[0,2,9,3,0]
   - x_kimjn[0,2,12,3,0] - x_kimjn[0,2,22,3,0] - x_kimjn[0,2,6,3,0]
   - x_kimjn[0,2,7,3,0] - x_kimjn[0,2,0,3,0] + x_kimjn[0,3,0,4,0]
   - x_kimjn[0,4,0,3,0] + xe_kjn[0,3,0] = 0
 R11: - x_kimjn[0,1,0,4,0] - x_kimjn[0,2,2,4,0] - x_kimjn[0,2,9,4,0]
   - x_kimjn[0,2,12,4,0] - x_kimjn[0,2,22,4,0] - x_kimjn[0,2,6,4,0]
   - x_kimjn[0,2,7,4,0] - x_kimjn[0,2,0,4,0] - x_kimjn[0,3,0,4,0]
   + x_kimjn[0,4,0,3,0] + xe_kjn[0,4,0] = 0
 R12: x_kimjn[0,1,0,2,2] + x_kimjn[0,1,0,2,9] + x_kimjn[0,1,0,2,12]
   + x_kimjn[0,1,0,2,22] + x_kimjn[0,1,0,2,6] + x_kimjn[0,1,0,2,7]
   + x_kimjn[0,1,0,2,0] + x_kimjn[0,1,0,3,0] + x_kimjn[0,1,0,4,0]
   + xs_kim[0,1,0] - y_kim[0,1,0] = 0
 R13: x_kimjn[0,2,2,1,0] + x_kimjn[0,2,2,3,0] + x_kimjn[0,2,2,4,0]
   + xs_kim[0,2,2] - y_kim[0,2,2] = 0
 R14: x_kimjn[0,2,9,1,0] + x_kimjn[0,2,9,3,0] + x_kimjn[0,2,9,4,0]
   + xs_kim[0,2,9] - y_kim[0,2,9] = 0
 R15: x_kimjn[0,2,12,1,0] + x_kimjn[0,2,12,3,0] + x_kimjn[0,2,12,4,0]
   + xs_kim[0,2,12] - y_kim[0,2,12] = 0
 R16: x_kimjn[0,2,22,1,0] + x_kimjn[0,2,22,3,0] + x_kimjn[0,2,22,4,0]
   + xs_kim[0,2,22] - y_kim[0,2,22] = 0
 R17: x_kimjn[0,2,6,1,0] + x_kimjn[0,2,6,3,0] + x_kimjn[0,2,6,4,0]
   + xs_kim[0,2,6] - y_kim[0,2,6] = 0
 R18: x_kimjn[0,2,7,1,0] + x_kimjn[0,2,7,3,0] + x_kimjn[0,2,7,4,0]
   + xs_kim[0,2,7] - y_kim[0,2,7] = 0
 R19: x_kimjn[0,2,0,1,0] + x_kimjn[0,2,0,3,0] + x_kimjn[0,2,0,4,0]
   + xs_kim[0,2,0] - y_kim[0,2,0] = 0
 R20: x_kimjn[0,3,0,4,0] + xe_kjn[0,3,0] - y_kim[0,3,0] = 0
 R21: x_kimjn[0,4,0,3,0] + xe_kjn[0,4,0] - y_kim[0,4,0] = 0
 R22: 2 y_kim[0,1,0] <= 1
 R23: y_kim[0,2,2] + y_kim[0,2,9] + y_kim[0,2,12] + y_kim[0,2,22]
   + y_kim[0,2,6] + y_kim[0,2,7] + 2 y_kim[0,2,0] <= 1
 R24: 2 y_kim[0,3,0] <= 1
 R25: 2 y_kim[0,4,0] <= 1
 R26: - z_ki[0,1] = 0
 R27: x_kimjn[0,1,0,2,2] + x_kimjn[0,1,0,2,9] + x_kimjn[0,1,0,2,12]
   + x_kimjn[0,1,0,2,22] + x_kimjn[0,1,0,2,6] + x_kimjn[0,1,0,2,7]
   + xs_kim[0,2,2] + xs_kim[0,2,9] + xs_kim[0,2,12] + xs_kim[0,2,22]
   + xs_kim[0,2,6] + xs_kim[0,2,7] - z_ki[0,2] = 0
 R28: xod_k[0] = 0
 R29: x_kimjn[0,1,0,3,0] + x_kimjn[0,2,2,3,0] + x_kimjn[0,2,9,3,0]
   + x_kimjn[0,2,12,3,0] + x_kimjn[0,2,22,3,0] + x_kimjn[0,2,6,3,0]
   + x_kimjn[0,2,7,3,0] + x_kimjn[0,2,0,3,0] + x_kimjn[0,4,0,3,0] = 0
 R30: x_kimjn[0,1,0,4,0] + x_kimjn[0,2,2,1,0] + x_kimjn[0,2,2,3,0]
   + 2 x_kimjn[0,2,2,4,0] + x_kimjn[0,2,9,1,0] + x_kimjn[0,2,9,3,0]
   + 2 x_kimjn[0,2,9,4,0] + x_kimjn[0,2,12,1,0] + x_kimjn[0,2,12,3,0]
   + 2 x_kimjn[0,2,12,4,0] + x_kimjn[0,2,22,1,0] + x_kimjn[0,2,22,3,0]
   + 2 x_kimjn[0,2,22,4,0] + x_kimjn[0,2,6,1,0] + x_kimjn[0,2,6,3,0]
   + 2 x_kimjn[0,2,6,4,0] + x_kimjn[0,2,7,1,0] + x_kimjn[0,2,7,3,0]
   + 2 x_kimjn[0,2,7,4,0] + x_kimjn[0,2,0,4,0] + x_kimjn[0,3,0,4,0] = 0
 R31: t_ki[0,1,0] - t_ki[0,3,0] <= -22
 R32: t_ki[0,1,0] - t_ki[0,3,0] <= -22
 R33: t_ki[0,2,2] - t_ki[0,4,0] <= -25
 R34: t_ki[0,2,2] - t_ki[0,4,0] <= -25
 R35: t_ki[0,2,9] - t_ki[0,4,0] <= -22
 R36: t_ki[0,2,9] - t_ki[0,4,0] <= -22
 R37: t_ki[0,2,12] - t_ki[0,4,0] <= -18
 R38: t_ki[0,2,12] - t_ki[0,4,0] <= -18
 R39: t_ki[0,2,22] - t_ki[0,4,0] <= -22
 R40: t_ki[0,2,22] - t_ki[0,4,0] <= -22
 R41: t_ki[0,2,6] - t_ki[0,4,0] <= -23
 R42: t_ki[0,2,6] - t_ki[0,4,0] <= -23
 R43: t_ki[0,2,7] - t_ki[0,4,0] <= -22
 R44: t_ki[0,2,7] - t_ki[0,4,0] <= -22
 R45: t_ki[0,2,0] - t_ki[0,4,0] <= -26
 R46: t_ki[0,2,0] - t_ki[0,4,0] <= -26
 R47: 517.5 x_kimjn[0,1,0,2,2] + t_ki[0,1,0] - t_ki[0,2,2] <= 499.5
 R48: 517.5 x_kimjn[0,1,0,2,9] + t_ki[0,1,0] - t_ki[0,2,9] <= 502.5
 R49: 517.5 x_kimjn[0,1,0,2,12] + t_ki[0,1,0] - t_ki[0,2,12] <= 505.5
 R50: 517.5 x_kimjn[0,1,0,2,22] + t_ki[0,1,0] - t_ki[0,2,22] <= 502.5
 R51: 517.5 x_kimjn[0,1,0,2,6] + t_ki[0,1,0] - t_ki[0,2,6] <= 500.5
 R52: 517.5 x_kimjn[0,1,0,2,7] + t_ki[0,1,0] - t_ki[0,2,7] <= 502.5
 R53: 517.5 x_kimjn[0,1,0,2,0] + t_ki[0,1,0] - t_ki[0,2,0] <= 499.5
 R54: 517.5 x_kimjn[0,1,0,3,0] + t_ki[0,1,0] - t_ki[0,3,0] <= 495.5
 R55: 517.5 x_kimjn[0,1,0,4,0] + t_ki[0,1,0] - t_ki[0,4,0] <= 495.5
 R56: 517.5 x_kimjn[0,2,2,1,0] - t_ki[0,1,0] + t_ki[0,2,2] <= 499.5
 R57: 517.5 x_kimjn[0,2,2,3,0] + t_ki[0,2,2] - t_ki[0,3,0] <= 492.5
 R58: 517.5 x_kimjn[0,2,2,4,0] + t_ki[0,2,2] - t_ki[0,4,0] <= 492.5
 R59: 517.5 x_kimjn[0,2,9,1,0] - t_ki[0,1,0] + t_ki[0,2,9] <= 502.5
 R60: 517.5 x_kimjn[0,2,9,3,0] + t_ki[0,2,9] - t_ki[0,3,0] <= 495.5
 R61: 517.5 x_kimjn[0,2,9,4,0] + t_ki[0,2,9] - t_ki[0,4,0] <= 495.5
 R62: 517.5 x_kimjn[0,2,12,1,0] - t_ki[0,1,0] + t_ki[0,2,12] <= 505.5
 R63: 517.5 x_kimjn[0,2,12,3,0] + t_ki[0,2,12] - t_ki[0,3,0] <= 499.5
 R64: 517.5 x_kimjn[0,2,12,4,0] + t_ki[0,2,12] - t_ki[0,4,0] <= 499.5
 R65: 517.5 x_kimjn[0,2,22,1,0] - t_ki[0,1,0] + t_ki[0,2,22] <= 501.5
 R66: 517.5 x_kimjn[0,2,22,3,0] + t_ki[0,2,22] - t_ki[0,3,0] <= 495.5
 R67: 517.5 x_kimjn[0,2,22,4,0] + t_ki[0,2,22] - t_ki[0,4,0] <= 495.5
 R68: 517.5 x_kimjn[0,2,6,1,0] - t_ki[0,1,0] + t_ki[0,2,6] <= 500.5
 R69: 517.5 x_kimjn[0,2,6,3,0] + t_ki[0,2,6] - t_ki[0,3,0] <= 494.5
 R70: 517.5 x_kimjn[0,2,6,4,0] + t_ki[0,2,6] - t_ki[0,4,0] <= 494.5
 R71: 517.5 x_kimjn[0,2,7,1,0] - t_ki[0,1,0] + t_ki[0,2,7] <= 501.5
 R72: 517.5 x_kimjn[0,2,7,3,0] + t_ki[0,2,7] - t_ki[0,3,0] <= 495.5
 R73: 517.5 x_kimjn[0,2,7,4,0] + t_ki[0,2,7] - t_ki[0,4,0] <= 495.5
 R74: 517.5 x_kimjn[0,2,0,1,0] - t_ki[0,1,0] + t_ki[0,2,0] <= 498.5
 R75: 517.5 x_kimjn[0,2,0,3,0] + t_ki[0,2,0] - t_ki[0,3,0] <= 491.5
 R76: 517.5 x_kimjn[0,2,0,4,0] + t_ki[0,2,0] - t_ki[0,4,0] <= 491.5
 R77: 517.5 x_kimjn[0,3,0,4,0] + t_ki[0,3,0] - t_ki[0,4,0] <= 504.5
 R78: 517.5 x_kimjn[0,4,0,3,0] - t_ki[0,3,0] + t_ki[0,4,0] <= 502.5
 R79: - 517.5 x_kimjn[0,1,0,2,2] + t_ki[0,1,0] - t_ki[0,2,2] >= -535.5
 R80: - 517.5 x_kimjn[0,1,0,2,9] + t_ki[0,1,0] - t_ki[0,2,9] >= -532.5
 R81: - 517.5 x_kimjn[0,1,0,2,12] + t_ki[0,1,0] - t_ki[0,2,12] >= -529.5
 R82: - 517.5 x_kimjn[0,1,0,2,22] + t_ki[0,1,0] - t_ki[0,2,22] >= -532.5
 R83: - 517.5 x_kimjn[0,1,0,2,6] + t_ki[0,1,0] - t_ki[0,2,6] >= -534.5
 R84: - 517.5 x_kimjn[0,1,0,2,7] + t_ki[0,1,0] - t_ki[0,2,7] >= -532.5
 R85: - 517.5 x_kimjn[0,1,0,2,0] + t_ki[0,1,0] - t_ki[0,2,0] >= -535.5
 R86: - 517.5 x_kimjn[0,1,0,3,0] + t_ki[0,1,0] - t_ki[0,3,0] >= -539.5
 R87: - 517.5 x_kimjn[0,1,0,4,0] + t_ki[0,1,0] - t_ki[0,4,0] >= -539.5
 R88: - 517.5 x_kimjn[0,2,2,1,0] - t_ki[0,1,0] + t_ki[0,2,2] >= -535.5
 R89: - 517.5 x_kimjn[0,2,2,3,0] + t_ki[0,2,2] - t_ki[0,3,0] >= -542.5
 R90: - 517.5 x_kimjn[0,2,2,4,0] + t_ki[0,2,2] - t_ki[0,4,0] >= -542.5
 R91: - 517.5 x_kimjn[0,2,9,1,0] - t_ki[0,1,0] + t_ki[0,2,9] >= -532.5
 R92: - 517.5 x_kimjn[0,2,9,3,0] + t_ki[0,2,9] - t_ki[0,3,0] >= -539.5
 R93: - 517.5 x_kimjn[0,2,9,4,0] + t_ki[0,2,9] - t_ki[0,4,0] >= -539.5
 R94: - 517.5 x_kimjn[0,2,12,1,0] - t_ki[0,1,0] + t_ki[0,2,12] >= -529.5
 R95: - 517.5 x_kimjn[0,2,12,3,0] + t_ki[0,2,12] - t_ki[0,3,0] >= -535.5
 R96: - 517.5 x_kimjn[0,2,12,4,0] + t_ki[0,2,12] - t_ki[0,4,0] >= -535.5
 R97: - 517.5 x_kimjn[0,2,22,1,0] - t_ki[0,1,0] + t_ki[0,2,22] >= -533.5
 R98: - 517.5 x_kimjn[0,2,22,3,0] + t_ki[0,2,22] - t_ki[0,3,0] >= -539.5
 R99: - 517.5 x_kimjn[0,2,22,4,0] + t_ki[0,2,22] - t_ki[0,4,0] >= -539.5
 R100: - 517.5 x_kimjn[0,2,6,1,0] - t_ki[0,1,0] + t_ki[0,2,6] >= -534.5
 R101: - 517.5 x_kimjn[0,2,6,3,0] + t_ki[0,2,6] - t_ki[0,3,0] >= -540.5
 R102: - 517.5 x_kimjn[0,2,6,4,0] + t_ki[0,2,6] - t_ki[0,4,0] >= -540.5
 R103: - 517.5 x_kimjn[0,2,7,1,0] - t_ki[0,1,0] + t_ki[0,2,7] >= -533.5
 R104: - 517.5 x_kimjn[0,2,7,3,0] + t_ki[0,2,7] - t_ki[0,3,0] >= -539.5
 R105: - 517.5 x_kimjn[0,2,7,4,0] + t_ki[0,2,7] - t_ki[0,4,0] >= -539.5
 R106: - 517.5 x_kimjn[0,2,0,1,0] - t_ki[0,1,0] + t_ki[0,2,0] >= -536.5
 R107: - 517.5 x_kimjn[0,2,0,3,0] + t_ki[0,2,0] - t_ki[0,3,0] >= -543.5
 R108: - 517.5 x_kimjn[0,2,0,4,0] + t_ki[0,2,0] - t_ki[0,4,0] >= -543.5
 R109: - 517.5 x_kimjn[0,3,0,4,0] + t_ki[0,3,0] - t_ki[0,4,0] >= -530.5
 R110: - 517.5 x_kimjn[0,4,0,3,0] - t_ki[0,3,0] + t_ki[0,4,0] >= -532.5
 R111: 517.5 xs_kim[0,1,0] + t_ki[0,0,0] - t_ki[0,1,0] <= 456.5
 R112: 517.5 xs_kim[0,2,2] + t_ki[0,0,0] - t_ki[0,2,2] <= 471.5
 R113: 517.5 xs_kim[0,2,9] + t_ki[0,0,0] - t_ki[0,2,9] <= 467.5
 R114: 517.5 xs_kim[0,2,12] + t_ki[0,0,0] - t_ki[0,2,12] <= 467.5
 R115: 517.5 xs_kim[0,2,22] + t_ki[0,0,0] - t_ki[0,2,22] <= 469.5
 R116: 517.5 xs_kim[0,2,6] + t_ki[0,0,0] - t_ki[0,2,6] <= 464.5
 R117: 517.5 xs_kim[0,2,7] + t_ki[0,0,0] - t_ki[0,2,7] <= 464.5
 R118: 517.5 xs_kim[0,2,0] + t_ki[0,0,0] - t_ki[0,2,0] <= 463.5
 R119: - 517.5 xs_kim[0,1,0] + t_ki[0,0,0] - t_ki[0,1,0] >= -578.5
 R120: - 517.5 xs_kim[0,2,2] + t_ki[0,0,0] - t_ki[0,2,2] >= -563.5
 R121: - 517.5 xs_kim[0,2,9] + t_ki[0,0,0] - t_ki[0,2,9] >= -567.5
 R122: - 517.5 xs_kim[0,2,12] + t_ki[0,0,0] - t_ki[0,2,12] >= -567.5
 R123: - 517.5 xs_kim[0,2,22] + t_ki[0,0,0] - t_ki[0,2,22] >= -565.5
 R124: - 517.5 xs_kim[0,2,6] + t_ki[0,0,0] - t_ki[0,2,6] >= -570.5
 R125: - 517.5 xs_kim[0,2,7] + t_ki[0,0,0] - t_ki[0,2,7] >= -570.5
 R126: - 517.5 xs_kim[0,2,0] + t_ki[0,0,0] - t_ki[0,2,0] >= -571.5
 R127: 517.5 xe_kjn[0,3,0] + t_ki[0,3,0] - t_ki[0,5,0] <= 504.5
 R128: 517.5 xe_kjn[0,4,0] + t_ki[0,4,0] - t_ki[0,5,0] <= 517.4
 R129: - 517.5 xe_kjn[0,3,0] + t_ki[0,3,0] - t_ki[0,5,0] >= -530.5
 R130: - 517.5 xe_kjn[0,4,0] + t_ki[0,4,0] - t_ki[0,5,0] >= -517.6
 R131: t_ki[0,3,0] >= 119.9
 R132: t_ki[0,4,0] >= 119.9
 R133: t_ki[0,3,0] <= 149.9
 R134: t_ki[0,4,0] <= 149.9
 R135: t_ki[0,5,0] >= 120
 R136: t_ki[0,5,0] <= 150
 R137: - t_ki[0,1,0] + t_ki[0,3,0] <= 63.33333333333334
 R138: - t_ki[0,2,0] + t_ki[0,4,0] <= 68.4
 R139: - t_ki[0,0,0] + t_ki[0,5,0] <= 207
 R140: 10 y_kim[0,2,2] - t_ki[0,2,2] + t_ki[0,2,0] <= 0
 R141: 6 y_kim[0,2,9] - t_ki[0,2,9] + t_ki[0,2,0] <= 0
 R142: 8 y_kim[0,2,12] - t_ki[0,2,12] + t_ki[0,2,0] <= 0
 R143: 7 y_kim[0,2,22] - t_ki[0,2,22] + t_ki[0,2,0] <= 0
 R144: 10 y_kim[0,2,6] - t_ki[0,2,6] + t_ki[0,2,0] <= 0
 R145: 10 y_kim[0,2,7] - t_ki[0,2,7] + t_ki[0,2,0] <= 0
 R146: - 0.1 y_kim[0,3,0] >= 0
 R147: - 0.1 y_kim[0,4,0] >= 0
 R148: z_ki[0,1] + z_ki[0,2] <= 4
Bounds
Binaries
 x_kimjn[0,1,0,1,0] x_kimjn[0,1,0,2,2] x_kimjn[0,1,0,2,9]
 x_kimjn[0,1,0,2,12] x_kimjn[0,1,0,2,22] x_kimjn[0,1,0,2,6]
 x_kimjn[0,1,0,2,7] x_kimjn[0,1,0,2,0] x_kimjn[0,1,0,3,0]
 x_kimjn[0,1,0,4,0] x_kimjn[0,2,2,1,0] x_kimjn[0,2,2,2,2]
 x_kimjn[0,2,2,2,9] x_kimjn[0,2,2,2,12] x_kimjn[0,2,2,2,22]
 x_kimjn[0,2,2,2,6] x_kimjn[0,2,2,2,7] x_kimjn[0,2,2,2,0]
 x_kimjn[0,2,2,3,0] x_kimjn[0,2,2,4,0] x_kimjn[0,2,9,1,0]
 x_kimjn[0,2,9,2,2] x_kimjn[0,2,9,2,9] x_kimjn[0,2,9,2,12]
 x_kimjn[0,2,9,2,22] x_kimjn[0,2,9,2,6] x_kimjn[0,2,9,2,7]
 x_kimjn[0,2,9,2,0] x_kimjn[0,2,9,3,0] x_kimjn[0,2,9,4,0]
 x_kimjn[0,2,12,1,0] x_kimjn[0,2,12,2,2] x_kimjn[0,2,12,2,9]
 x_kimjn[0,2,12,2,12] x_kimjn[0,2,12,2,22] x_kimjn[0,2,12,2,6]
 x_kimjn[0,2,12,2,7] x_kimjn[0,2,12,2,0] x_kimjn[0,2,12,3,0]
 x_kimjn[0,2,12,4,0] x_kimjn[0,2,22,1,0] x_kimjn[0,2,22,2,2]
 x_kimjn[0,2,22,2,9] x_kimjn[0,2,22,2,12] x_kimjn[0,2,22,2,22]
 x_kimjn[0,2,22,2,6] x_kimjn[0,2,22,2,7] x_kimjn[0,2,22,2,0]
 x_kimjn[0,2,22,3,0] x_kimjn[0,2,22,4,0] x_kimjn[0,2,6,1,0]
 x_kimjn[0,2,6,2,2] x_kimjn[0,2,6,2,9] x_kimjn[0,2,6,2,12]
 x_kimjn[0,2,6,2,22] x_kimjn[0,2,6,2,6] x_kimjn[0,2,6,2,7]
 x_kimjn[0,2,6,2,0] x_kimjn[0,2,6,3,0] x_kimjn[0,2,6,4,0]
 x_kimjn[0,2,7,1,0] x_kimjn[0,2,7,2,2] x_kimjn[0,2,7,2,9]
 x_kimjn[0,2,7,2,12] x_kimjn[0,2,7,2,22] x_kimjn[0,2,7,2,6]
 x_kimjn[0,2,7,2,7] x_kimjn[0,2,7,2,0] x_kimjn[0,2,7,3,0]
 x_kimjn[0,2,7,4,0] x_kimjn[0,2,0,1,0] x_kimjn[0,2,0,2,2]
 x_kimjn[0,2,0,2,9] x_kimjn[0,2,0,2,12] x_kimjn[0,2,0,2,22]
 x_kimjn[0,2,0,2,6] x_kimjn[0,2,0,2,7] x_kimjn[0,2,0,2,0]
 x_kimjn[0,2,0,3,0] x_kimjn[0,2,0,4,0] x_kimjn[0,3,0,1,0]
 x_kimjn[0,3,0,2,2] x_kimjn[0,3,0,2,9] x_kimjn[0,3,0,2,12]
 x_kimjn[0,3,0,2,22] x_kimjn[0,3,0,2,6] x_kimjn[0,3,0,2,7]
 x_kimjn[0,3,0,2,0] x_kimjn[0,3,0,3,0] x_kimjn[0,3,0,4,0]
 x_kimjn[0,4,0,1,0] x_kimjn[0,4,0,2,2] x_kimjn[0,4,0,2,9]
 x_kimjn[0,4,0,2,12] x_kimjn[0,4,0,2,22] x_kimjn[0,4,0,2,6]
 x_kimjn[0,4,0,2,7] x_kimjn[0,4,0,2,0] x_kimjn[0,4,0,3,0]
 x_kimjn[0,4,0,4,0] xs_kim[0,1,0] xs_kim[0,2,2] xs_kim[0,2,9]
 xs_kim[0,2,12] xs_kim[0,2,22] xs_kim[0,2,6] xs_kim[0,2,7] xs_kim[0,2,0]
 xe_kjn[0,3,0] xe_kjn[0,4,0] xod_k[0] y_kim[0,1,0] y_kim[0,2,2]
 y_kim[0,2,9] y_kim[0,2,12] y_kim[0,2,22] y_kim[0,2,6] y_kim[0,2,7]
 y_kim[0,2,0] y_kim[0,3,0] y_kim[0,4,0] z_ki[0,1] z_ki[0,2]
End
